c A SAT instance generated from a 3-CNF formula that had 55 clauses and 10 variables
p cnf 10 55
7 5 3 0
3 -4 -1 0
-2 -9 8 0
2 -3 -1 0
8 -10 -5 0
-10 -5 -9 0
-6 10 9 0
1 -10 -2 0
-6 -5 4 0
6 -9 -2 0
-3 -5 2 0
10 7 8 0
-4 8 6 0
9 -5 -4 0
-5 1 4 0
5 3 -1 0
-3 4 2 0
5 7 6 0
-7 5 10 0
5 8 6 0
3 2 -7 0
9 -8 10 0
3 -6 5 0
6 -10 3 0
-3 8 -7 0
2 9 1 0
-2 7 4 0
-1 -4 9 0
-1 7 4 0
7 9 -4 0
7 -8 9 0
-6 -1 4 0
9 -5 -3 0
-3 -8 7 0
1 10 8 0
-2 4 8 0
6 -9 -7 0
4 -8 -9 0
-9 -1 5 0
-5 6 -10 0
-1 -5 10 0
7 -2 9 0
10 -3 -9 0
-4 -8 7 0
7 10 2 0
-4 -3 -1 0
-7 -5 10 0
5 2 -1 0
-4 -1 5 0
-4 6 8 0
-6 -9 -2 0
7 -5 -10 0
-2 -10 -7 0
-6 -1 10 0
8 3 -4 0
